(set-info :status sat)
(declare-const symbol_90 (_ BitVec 32))
(declare-const symbol_32 (_ BitVec 32))
(declare-const symbol_68 (_ BitVec 32))
(declare-const symbol_35 (_ BitVec 32))
(declare-const symbol_78 (_ BitVec 32))
(declare-const symbol_112 (_ BitVec 32))
(declare-const symbol_27 (_ BitVec 32))
(declare-const symbol_118 (_ BitVec 32))
(declare-const symbol_110 (_ BitVec 32))
(declare-const symbol_58 (_ BitVec 32))
(declare-const symbol_17 (_ BitVec 32))
(declare-const symbol_33 (_ BitVec 32))
(declare-const symbol_54 (_ BitVec 32))
(declare-const symbol_45 (_ BitVec 32))
(declare-const symbol_106 (_ BitVec 32))
(declare-const symbol_49 (_ BitVec 32))
(declare-const symbol_63 (_ BitVec 32))
(declare-const symbol_116 (_ BitVec 32))
(declare-const symbol_84 (_ BitVec 32))
(declare-const symbol_26 (_ BitVec 32))
(declare-const symbol_29 (_ BitVec 32))
(declare-const symbol_15 (_ BitVec 32))
(declare-const symbol_0 (_ BitVec 32))
(declare-const symbol_104 (_ BitVec 32))
(declare-const symbol_82 (_ BitVec 32))
(declare-const symbol_9 (_ BitVec 32))
(declare-const symbol_65 (_ BitVec 32))
(declare-const symbol_47 (_ BitVec 32))
(declare-const symbol_108 (_ BitVec 32))
(declare-const symbol_52 (_ BitVec 32))
(declare-const symbol_61 (_ BitVec 32))
(declare-const symbol_11 (_ BitVec 32))
(declare-const symbol_3 (_ BitVec 32))
(declare-const symbol_95 (_ BitVec 32))
(declare-const symbol_24 (_ BitVec 32))
(declare-const symbol_74 (_ BitVec 32))
(declare-const symbol_72 (_ BitVec 32))
(declare-const symbol_97 (_ BitVec 32))
(declare-const symbol_80 (_ BitVec 32))
(declare-const symbol_50 (_ BitVec 32))
(declare-const symbol_66 (_ BitVec 32))
(declare-const symbol_40 (_ BitVec 32))
(declare-const symbol_37 (_ BitVec 32))
(declare-const symbol_21 (_ BitVec 32))
(declare-const symbol_19 (_ BitVec 32))
(declare-const symbol_88 (_ BitVec 32))
(declare-const symbol_43 (_ BitVec 32))
(declare-const symbol_99 (_ BitVec 32))
(declare-const symbol_93 (_ BitVec 32))
(declare-const symbol_2 (_ BitVec 32))
(declare-const symbol_101 (_ BitVec 32))
(declare-const symbol_86 (_ BitVec 32))
(declare-const symbol_13 (_ BitVec 32))
(declare-const symbol_59 (_ BitVec 32))
(declare-const symbol_56 (_ BitVec 32))
(declare-const symbol_8 (_ BitVec 32))
(declare-const symbol_114 (_ BitVec 32))
(declare-const symbol_76 (_ BitVec 32))
(declare-const symbol_70 (_ BitVec 32))
(declare-const symbol_5 (_ BitVec 32))
(assert (not (= symbol_118 (_ bv2 32))))
(assert (not (not (= symbol_118 (_ bv1 32)))))
(assert (not (not (= symbol_116 (_ bv1 32)))))
(assert (not (not (= symbol_114 (_ bv1 32)))))
(assert (not (not (= symbol_112 (_ bv1 32)))))
(assert (not (not (= symbol_110 (_ bv1 32)))))
(assert (not (not (= symbol_108 (_ bv1 32)))))
(assert (not (not (= symbol_106 (_ bv1 32)))))
(assert (not (not (= symbol_104 (_ bv1 32)))))
(assert (not (not (= symbol_101 (_ bv1 32)))))
(assert (not (not (= symbol_99 (_ bv1 32)))))
(assert (not (not (= symbol_97 (_ bv1 32)))))
(assert (not (not (= symbol_95 (_ bv1 32)))))
(assert (not (not (= symbol_93 (_ bv1 32)))))
(assert (not (not (= symbol_90 (_ bv1 32)))))
(assert (not (not (= symbol_88 (_ bv1 32)))))
(assert (not (not (= symbol_86 (_ bv1 32)))))
(assert (not (not (= symbol_84 (_ bv1 32)))))
(assert (not (not (= symbol_82 (_ bv1 32)))))
(assert (not (not (= symbol_80 (_ bv1 32)))))
(assert (not (not (= symbol_78 (_ bv1 32)))))
(assert (not (not (= symbol_76 (_ bv1 32)))))
(assert (not (not (= symbol_74 (_ bv1 32)))))
(assert (not (not (= symbol_72 (_ bv1 32)))))
(assert (not (not (= symbol_70 (_ bv1 32)))))
(assert (not (not (= symbol_68 (_ bv1 32)))))
(assert (not (not (= symbol_66 (_ bv1 32)))))
(assert (not (not (= symbol_65 (_ bv1 32)))))
(assert (not (not (= symbol_63 (_ bv1 32)))))
(assert (not (not (= symbol_61 (_ bv1 32)))))
(assert (not (not (= symbol_59 (_ bv1 32)))))
(assert (not (not (= symbol_58 (_ bv1 32)))))
(assert (not (not (= symbol_56 (_ bv1 32)))))
(assert (not (not (= symbol_54 (_ bv1 32)))))
(assert (not (not (= symbol_52 (_ bv1 32)))))
(assert (not (not (= symbol_50 (_ bv1 32)))))
(assert (not (not (= symbol_49 (_ bv1 32)))))
(assert (not (not (= symbol_47 (_ bv1 32)))))
(assert (not (not (= symbol_45 (_ bv1 32)))))
(assert (not (not (= symbol_43 (_ bv1 32)))))
(assert (not (not (= symbol_40 (_ bv1 32)))))
(assert (not (not (= symbol_37 (_ bv1 32)))))
(assert (not (not (= symbol_35 (_ bv1 32)))))
(assert (not (not (= symbol_33 (_ bv1 32)))))
(assert (not (not (= symbol_32 (_ bv1 32)))))
(assert (not (not (= symbol_29 (_ bv1 32)))))
(assert (not (not (= symbol_27 (_ bv1 32)))))
(assert (not (not (= symbol_26 (_ bv1 32)))))
(assert (not (not (= symbol_24 (_ bv1 32)))))
(assert (not (not (= symbol_21 (_ bv1 32)))))
(assert (not (not (= symbol_19 (_ bv1 32)))))
(assert (not (not (= symbol_17 (_ bv1 32)))))
(assert (not (not (= symbol_15 (_ bv1 32)))))
(assert (not (not (= symbol_13 (_ bv1 32)))))
(assert (not (not (= symbol_11 (_ bv1 32)))))
(assert (not (not (= symbol_9 (_ bv1 32)))))
(assert (not (not (= symbol_8 (_ bv1 32)))))
(assert (not (not (= symbol_5 (_ bv1 32)))))
(assert (not (not (= symbol_3 (_ bv1 32)))))
(assert (not (not (= symbol_2 (_ bv1 32)))))
(assert (not (not (= symbol_0 (_ bv1 32)))))
(check-sat)